RT is False
Default write of storage_offers_DA.csv just to have a file (but constraint should be inactive)
Reading model...
...model read.
creating competitive generators file...
...competitive generators recorded.
Loading data...
.. day-ahead data with real-time VRE data read.
Compiling instance...
...instance created.
Creating Offer Mitigation (model will solve as dispatch if TRUE)...
Solving...

Welcome to IBM(R) ILOG(R) CPLEX(R) Interactive Optimizer 12.9.0.0
  with Simplex, Mixed Integer & Barrier Optimizers
5725-A06 5725-A29 5724-Y48 5724-Y49 5724-Y54 5724-Y55 5655-Y21
Copyright IBM Corp. 1988, 2019.  All Rights Reserved.

Type 'help' for a list of available commands.
Type 'help' followed by a command name for more
information on commands.

CPLEX> Logfile 'cplex.log' closed.
Logfile 'C:\Users\llavin\Desktop\test919\logs\tmp8ile1rcb.cplex.log' open.
CPLEX> New value for parallel optimization mode: -1
CPLEX> New value for mixed integer optimality gap tolerance: 0.01
CPLEX> New value for integrality tolerance: 1e-09
CPLEX> New value for feasibility tolerance: 0.01
CPLEX> New value for deterministic time limit in ticks: 75000
CPLEX> Problem 'C:\Users\llavin\Desktop\test919\logs\tmpasex04_6.pyomo.lp' read.
Read time = 0.06 sec. (3.04 ticks)
CPLEX> Problem name         : C:\Users\llavin\Desktop\test919\logs\tmpasex04_6.pyomo.lp
Objective sense      : Minimize
Variables            :   26081  [Nneg: 1,  Box: 21616,  Free: 4464]
Objective nonzeros   :    2496
Linear constraints   :   27515  [Less: 14006,  Greater: 4416,  Equal: 9093]
  Nonzeros           :   89219
  RHS nonzeros       :   12271

Variables            : Min LB: -5000.000        Max UB: 1000000.       
Objective nonzeros   : Min   : 15.73158         Max   : 124.0997       
Linear constraints   :
  Nonzeros           : Min   : 0.8500000        Max   : 3000.000       
  RHS nonzeros       : Min   : 0.7833333        Max   : 5000.000       
CPLEX> CPXPARAM_Parallel                                -1
CPXPARAM_Simplex_Tolerances_Feasibility          0.01
CPXPARAM_DetTimeLimit                            75000
CPXPARAM_MIP_Tolerances_MIPGap                   0.01
CPXPARAM_MIP_Tolerances_Integrality              1.0000000000000001e-09
Parallel mode: opportunistic, using up to 32 threads for concurrent optimization.
Tried aggregator 1 time.
LP Presolve eliminated 21377 rows and 15487 columns.
Aggregator did 745 substitutions.
Reduced LP has 5393 rows, 9849 columns, and 31790 nonzeros.
Presolve time = 0.06 sec. (30.21 ticks)
Symmetry aggregator did 5563 additional substitutions.

Iteration log . . .
Iteration:     1   Dual objective     =             0.000000
Perturbation started.
Iteration:   101   Dual objective     =             0.000000
Iteration:   338   Dual objective     =             1.262346
Iteration:   613   Dual objective     =             1.963822
Iteration:   867   Dual objective     =             2.111957
Iteration:  1060   Dual objective     =             2.229153
Iteration:  1337   Dual objective     =             2.280463
Iteration:  1587   Dual objective     =             2.309748
Iteration:  1804   Dual objective     =         81144.089866
Iteration:  2003   Dual objective     =        269034.126628
Iteration:  2202   Dual objective     =        339842.653868
Iteration:  2405   Dual objective     =        362103.060307
Iteration:  2753   Dual objective     =        364896.102796
Removing perturbation.
Dual superbasis not built.
Using devex.

Primal simplex solved model.


Primal simplex - Optimal:  Objective =  3.6497601479e+05
Solution time =    0.16 sec.  Iterations = 1678 (1005)
Deterministic time = 81.22 ticks  (520.64 ticks/sec)

CPLEX> Solution written to file 'C:\Users\llavin\Desktop\test919\logs\tmp7518r5e4.cplex.sol'.
CPLEX> Exporting results... 
...storage offer mitigation file created
Converting model to MPEC...
...converted
NOTE: initial MIP solve with only storage competitive to get feasible solution
Solving...

Welcome to IBM(R) ILOG(R) CPLEX(R) Interactive Optimizer 12.9.0.0
  with Simplex, Mixed Integer & Barrier Optimizers
5725-A06 5725-A29 5724-Y48 5724-Y49 5724-Y54 5724-Y55 5655-Y21
Copyright IBM Corp. 1988, 2019.  All Rights Reserved.

Type 'help' for a list of available commands.
Type 'help' followed by a command name for more
information on commands.

CPLEX> Logfile 'cplex.log' closed.
Logfile 'C:\Users\llavin\Desktop\test919\logs\tmp6gwv8i4j.cplex.log' open.
CPLEX> New value for parallel optimization mode: -1
CPLEX> New value for mixed integer optimality gap tolerance: 0.01
CPLEX> New value for integrality tolerance: 1e-09
CPLEX> New value for feasibility tolerance: 0.01
CPLEX> New value for deterministic time limit in ticks: 75000
CPLEX> Problem 'C:\Users\llavin\Desktop\test919\logs\tmp457_cozi.pyomo.lp' read.
Read time = 0.23 sec. (14.78 ticks)
CPLEX> Problem name         : C:\Users\llavin\Desktop\test919\logs\tmp457_cozi.pyomo.lp
Objective sense      : Maximize
Variables            :   53805  [Nneg: 1,  Box: 22000,  Free: 4464,
                                 Binary: 27340]
Objective nonzeros   :    9029
Linear constraints   :  123205  [Less: 41346,  Greater: 59096,  Equal: 22763]
  Nonzeros           :  291753
  RHS nonzeros       :   67469

Variables            : Min LB: -5000.000        Max UB: 1000000.       
Objective nonzeros   : Min   : 0.7833333        Max   : 2500.000       
Linear constraints   :
  Nonzeros           : Min   : 0.7833333        Max   : 1000000.       
  RHS nonzeros       : Min   : 0.7833333        Max   : 1000000.       
CPLEX> CPXPARAM_Parallel                                -1
CPXPARAM_Simplex_Tolerances_Feasibility          0.01
CPXPARAM_DetTimeLimit                            75000
CPXPARAM_MIP_Tolerances_MIPGap                   0.01
CPXPARAM_MIP_Tolerances_Integrality              1.0000000000000001e-09
Tried aggregator 3 times.
MIP Presolve eliminated 88699 rows and 19023 columns.
MIP Presolve added 3358 rows and 0 columns.
MIP Presolve modified 24826 coefficients.
Aggregator did 12959 substitutions.
Reduced MIP has 24905 rows, 21267 columns, and 71028 nonzeros.
Reduced MIP has 8399 binaries, 0 generals, 0 SOSs, and 0 indicators.
Presolve time = 0.28 sec. (173.48 ticks)
Probing fixed 385 vars, tightened 2814 bounds.
Probing time = 1.25 sec. (869.62 ticks)
Tried aggregator 2 times.
MIP Presolve eliminated 870 rows and 772 columns.
MIP Presolve modified 2213 coefficients.
Aggregator did 43 substitutions.
Reduced MIP has 23992 rows, 20452 columns, and 68387 nonzeros.
Reduced MIP has 8013 binaries, 0 generals, 0 SOSs, and 0 indicators.
Presolve time = 0.11 sec. (67.57 ticks)
Probing fixed 0 vars, tightened 1 bounds.
Probing time = 0.05 sec. (20.78 ticks)
Clique table members: 6268.
MIP emphasis: balance optimality and feasibility.
MIP search method: dynamic search.
Parallel mode: opportunistic, using up to 32 threads.
Root relaxation solution time = 0.47 sec. (343.96 ticks)

        Nodes                                         Cuts/
   Node  Left     Objective  IInf  Best Integer    Best Bound    ItCnt     Gap

      0     0     4047.5678  1910                   4047.5678     7789         
      0     0     4047.5678   695                   Cuts: 733     8194         
      0     0     4047.5678   563                   Cuts: 548     8446         
      0     0     4047.5678   466                   Cuts: 236     8553         
      0     0     4047.5678   431                    Cuts: 86     8593         
      0     0     4047.5678   414                    Cuts: 67     8615         
      0     0     4047.5678   394                    Cuts: 50     8627         
      0     0     4047.5678   391                    Cuts: 44     8641         
      0     0     4047.5678   390                    Cuts: 39     8656         
      0    18    infeasible                           Cuts: 5     9004         
Elapsed time = 10.95 sec. (6978.99 ticks, tree = 0.02 MB, solutions = 0)
    462    92     3430.8551   376                   4047.5678    10105         
   1218   598    -5137.8064   342                   4047.5678    12410         
   2052   867     4047.5678   317                   4047.5678    13166         
   3018  1725     3035.9026   317                   4047.5678    15673         
   4010  3099     4047.5678   264                   4047.5678    18544         
   4963  3730    -3846.4232   250                   4047.5678    18775         
   6112  4453     3035.9026   286                   4047.5678    19040         
   7370  5463     3035.9026   285                   4047.5678    19165         
   8181  5852     4047.5678   137                   4047.5678    19441         
*  8920+ 8413                       -31215.1854     4047.5678           112.97%
Elapsed time = 24.78 sec. (9331.45 ticks, tree = 70.69 MB, solutions = 3)
* 10740  3378      integral     0     4047.5678     4047.5678    32050    0.00%
  11171  3209        cutoff           4047.5678     4047.5678    30991    0.00%
  11171  3209     4026.7712     0     4047.5678     4047.5678    30991    0.00%

Clique cuts applied:  21
Implied bound cuts applied:  43
Flow cuts applied:  453
Mixed integer rounding cuts applied:  31
Gomory fractional cuts applied:  34

Root node processing (before b&c):
  Real time             =    9.88 sec. (6973.45 ticks)
Parallel b&c, 32 threads:
  Real time             =   17.67 sec. (3340.79 ticks)
  Sync time (average)   =    0.90 sec.
  Wait time (average)   =    0.00 sec.
                          ------------
Total (root+branch&cut) =   27.55 sec. (10314.24 ticks)

Solution pool: 10 solutions saved.

MIP - Integer optimal solution:  Objective =  4.0475678250e+03
Solution time =   27.56 sec.  Iterations = 36574  Nodes = 11172
Deterministic time = 10314.40 ticks  (374.23 ticks/sec)

CPLEX> Incumbent solution written to file 'C:\Users\llavin\Desktop\test919\logs\tmpz_x9agtd.cplex.sol'.
CPLEX> NOTE: no warmstart specified for MIP iteration, default behavior is true
NOTE: resolving with all competitive generators using storage-only solution to warmstart
Solving...

Welcome to IBM(R) ILOG(R) CPLEX(R) Interactive Optimizer 12.9.0.0
  with Simplex, Mixed Integer & Barrier Optimizers
5725-A06 5725-A29 5724-Y48 5724-Y49 5724-Y54 5724-Y55 5655-Y21
Copyright IBM Corp. 1988, 2019.  All Rights Reserved.

Type 'help' for a list of available commands.
Type 'help' followed by a command name for more
information on commands.

CPLEX> Logfile 'cplex.log' closed.
Logfile 'C:\Users\llavin\Desktop\test919\logs\tmpy8gybk5g.cplex.log' open.
CPLEX> New value for parallel optimization mode: -1
CPLEX> New value for mixed integer optimality gap tolerance: 0.01
CPLEX> New value for integrality tolerance: 1e-09
CPLEX> New value for feasibility tolerance: 0.01
CPLEX> New value for deterministic time limit in ticks: 75000
CPLEX> Problem 'C:\Users\llavin\Desktop\test919\logs\tmpfzixipb2.pyomo.lp' read.
Read time = 0.23 sec. (14.81 ticks)
CPLEX> MIP start file 'C:\Users\llavin\Desktop\test919\logs\tmp2b7x2yg6.cplex.mst' read.
CPLEX> Problem name         : C:\Users\llavin\Desktop\test919\logs\tmpfzixipb2.pyomo.lp
Objective sense      : Maximize
Variables            :   54525  [Nneg: 1,  Box: 22720,  Free: 4464,
                                 Binary: 27340]
Objective nonzeros   :    9725
Linear constraints   :  123205  [Less: 41346,  Greater: 59096,  Equal: 22763]
  Nonzeros           :  291753
  RHS nonzeros       :   67469

Variables            : Min LB: -5000.000        Max UB: 1000000.       
Objective nonzeros   : Min   : 0.7833333        Max   : 2500.000       
Linear constraints   :
  Nonzeros           : Min   : 0.7833333        Max   : 1000000.       
  RHS nonzeros       : Min   : 0.7833333        Max   : 1000000.       
CPLEX> CPXPARAM_Parallel                                -1
CPXPARAM_Simplex_Tolerances_Feasibility          0.01
CPXPARAM_DetTimeLimit                            75000
CPXPARAM_MIP_Tolerances_MIPGap                   0.01
CPXPARAM_MIP_Tolerances_Integrality              1.0000000000000001e-09
Warning:  No solution found from 1 MIP starts.
Retaining values of one MIP start for possible repair.
Tried aggregator 3 times.
MIP Presolve eliminated 88699 rows and 19743 columns.
MIP Presolve added 3358 rows and 0 columns.
MIP Presolve modified 24826 coefficients.
Aggregator did 12959 substitutions.
Reduced MIP has 24905 rows, 21267 columns, and 71028 nonzeros.
Reduced MIP has 8399 binaries, 0 generals, 0 SOSs, and 0 indicators.
Presolve time = 0.30 sec. (173.84 ticks)
Probing fixed 385 vars, tightened 2814 bounds.
Probing time = 1.19 sec. (869.62 ticks)
Tried aggregator 2 times.
MIP Presolve eliminated 870 rows and 772 columns.
MIP Presolve modified 2213 coefficients.
Aggregator did 43 substitutions.
Reduced MIP has 23992 rows, 20452 columns, and 68387 nonzeros.
Reduced MIP has 8013 binaries, 0 generals, 0 SOSs, and 0 indicators.
Presolve time = 0.11 sec. (67.58 ticks)
Probing fixed 0 vars, tightened 1 bounds.
Probing time = 0.05 sec. (20.78 ticks)
Clique table members: 6268.
MIP emphasis: balance optimality and feasibility.
MIP search method: dynamic search.
Parallel mode: opportunistic, using up to 32 threads.
Root relaxation solution time = 0.55 sec. (292.56 ticks)

        Nodes                                         Cuts/
   Node  Left     Objective  IInf  Best Integer    Best Bound    ItCnt     Gap

      0     0    59717.6834   474                  59717.6834       34         
      0     0    59088.8242    88                   Cuts: 155      118         
      0     0    59037.6364    91                    Cuts: 65      148         
      0     0    59037.6364    89                    Cuts: 19      152         
      0     0    59008.7062    89                    Cuts: 19      158         
      0     0    59001.3735    90                    Cuts: 25      163         
      0     0    59000.6369    93                    Cuts: 20      169         
Repair heuristic found nothing.
      0     2    59000.6369    93                    Cuts: 16      169         
Elapsed time = 11.19 sec. (6348.51 ticks, tree = 0.02 MB, solutions = 0)
    451    79    55229.6283    28                  58574.3994      996         
   1044   447    55154.4327    25                  58574.3994     4415         
*  1231+  651                        55152.3673    58574.3994             6.20%
   2105   660    57355.5657    23    55152.3673    58574.3994    14694    6.20%
   2827   902    57613.1569    12    55152.3673    58574.3994    19119    6.20%
   3423  1729    57584.0567    65    55152.3673    58539.4662    22722    6.14%
   3993  2330    55761.5970    14    57068.4420    58539.4662    25626    2.58%
   4635  2327    57932.0138    23    57069.5112    58539.4662    25351    2.58%
   5339  1377        cutoff          57069.5112    58475.4007    29160    2.46%
*  5523  1744      integral     0    57072.1489    58459.0478    31487    2.43%
Elapsed time = 22.20 sec. (8370.82 ticks, tree = 11.35 MB, solutions = 8)
   8823  2900    57302.2379    52    57076.0283    58440.8066    38223    2.39%
   8881  3611        cutoff          57076.0283    58440.8066    49702    2.39%
   9980    95    58336.1437   170    57076.0283    58440.8066    50085    2.39%
  11874   561    58531.9682   151    57076.0283    58440.8066    52210    2.39%
  13669  3046    57106.7214    63    57076.0283    58440.8066    66251    2.39%
* 14347  3891      integral     0    57102.1377    58440.8066    70103    2.34%
  16484  3957    57142.6983   107    57390.2686    58440.8066    70276    1.83%
  18776  4206    57111.5500    18    57390.2686    58440.8066    70828    1.83%
  21073  4078    57923.2011   182    57390.2686    58440.8066    97412    1.83%
  23602  3855        cutoff          57390.2686    58440.8066    94145    1.83%
Elapsed time = 72.41 sec. (22083.59 ticks, tree = 41.96 MB, solutions = 15)
  25940  4849    58004.6593   175    57390.2686    58440.8066   106901    1.83%
  28323  5655    57894.3099   171    57390.2686    58440.8066   117348    1.83%
  30375  6699    57514.5493    92    57390.2686    58440.8066   131132    1.83%
  31987  8123    57453.6800   120    57390.2686    58440.8066   144792    1.83%
* 33147  9854      integral     0    57468.9061    58364.5676   159767    1.56%
  35467 10842    57409.3920    60    57468.9061    58336.7301   166204    1.51%
  38240 11357    57468.5649   134    57468.9061    58324.9585   170782    1.49%
  40641  9932    57510.6399   112    57468.9061    58286.3870   182794    1.42%
  42440 10732    57475.7858    68    57468.9061    58201.3038   196124    1.27%
  43060 11049    57520.1224    62    57468.9061    58123.0269   200577    1.14%
Elapsed time = 105.41 sec. (31537.72 ticks, tree = 139.79 MB, solutions = 16)

GUB cover cuts applied:  2
Clique cuts applied:  8
Cover cuts applied:  16
Implied bound cuts applied:  12
Flow cuts applied:  319
Mixed integer rounding cuts applied:  36
Gomory fractional cuts applied:  60

Root node processing (before b&c):
  Real time             =    9.20 sec. (6320.95 ticks)
Parallel b&c, 32 threads:
  Real time             =   96.56 sec. (25822.55 ticks)
  Sync time (average)   =    4.27 sec.
  Wait time (average)   =    0.19 sec.
                          ------------
Total (root+branch&cut) =  105.77 sec. (32143.50 ticks)

Solution pool: 16 solutions saved.

MIP - Integer optimal, tolerance (0.01/1e-06):  Objective =  5.7468906098e+04
Current MIP best bound =  5.8042995785e+04 (gap = 574.09, 1.00%)
Solution time =  105.78 sec.  Iterations = 219194  Nodes = 43173 (13761)
Deterministic time = 32143.65 ticks  (303.87 ticks/sec)

CPLEX> Incumbent solution written to file 'C:\Users\llavin\Desktop\test919\logs\tmpljmm3hri.cplex.sol'.
CPLEX> Exporting results... 
